n_res = 4;
rc = [ 16, 27, 28, 16 ];
n_tasks = 30;
d = [ 2, 10, 7, 9, 7, 2, 4, 2, 2, 10, 8, 8, 2, 6, 3, 3, 4, 2, 5, 10, 2, 6, 8, 5, 7, 3, 5, 10, 4, 3 ];
rr = [| 0, 0, 3, 6, 0, 0, 1, 1, 0, 0, 10, 0, 0, 0, 3, 0, 0, 5, 0, 2, 0, 5, 0, 9, 5, 0, 0, 0, 0, 0
      | 3, 8, 4, 4, 8, 5, 4, 2, 0, 6, 8, 0, 0, 0, 1, 4, 5, 0, 0, 0, 0, 0, 0, 0, 0, 0, 0, 3, 6, 1
      | 0, 10, 10, 10, 1, 10, 0, 0, 2, 1, 4, 7, 0, 0, 0, 0, 0, 6, 9, 0, 0, 4, 0, 10, 0, 9, 0, 1, 6, 7
      | 0, 3, 8, 0, 0, 3, 0, 0, 10, 1, 0, 1, 7, 3, 9, 0, 0, 0, 4, 0, 9, 2, 5, 0, 0, 5, 8, 0, 9, 2 |];
suc = [ { 2 }, 
        { 3 }, 
        { 4 }, 
        { 5 }, 
        { 6 }, 
        { 7 }, 
        { 8 }, 
        { 9 }, 
        { 10 }, 
        { 11 }, 
        { 12 }, 
        { 13 }, 
        { 14 }, 
        { 15 }, 
        { 16 }, 
        { 17 }, 
        { 18 }, 
        { 19 }, 
        { 20 }, 
        { 21 }, 
        { 22 }, 
        { 23 }, 
        { 24 }, 
        { 25 }, 
        { 26 }, 
        { 27 }, 
        { 28 }, 
        { 29 }, 
        { 30 }, 
        {  }]; 
